50
150
100
100
93
91
88
86
86
84
83
75
75
75
75
75
73
72
70
69
67
66
66
65
61
58
56
55
55
54
52
51
51
51
50
47
45
44
42
42
41
40
39
36
35
35
33
33
33
32
31
30
